benchmarks/VRPTW/TSPTW/solution/n60w160.003.txt.solution
1 53 61 44 25 32 4 18 26 29 39 38 22 15 8 24 54 20 37 58 10 56 13 51 47 21 33 28 23 31 52 3 30 40 41 46 5 43 36 50 59 35 6 7 14 57 17 48 19 27 16 9 42 45 34 55 12 2 11 60 49 
434
